p wcnf 5000 500 1
1 1 0
1 2 0
1 3 0
1 4 0
1 5 0
1 6 0
1 7 0
1 8 0
1 9 0
1 10 0
1 11 0
1 12 0
1 13 0
1 14 0
1 15 0
1 1 1 1 1 1 1 1 1 1 1 1 1 1 1 0
1 1 1 1 1 1 1 1 1 1 1 2 2 2 2 0
1 2 2 2 2 2 2 2 2 2 2 2 2 2 2 0
1 2 2 2 2 2 2 2 2 2 2 2 2 2 2 0
1 2 2 2 2 2 2 2 2 2 3 3 3 3 3 0
1 3 3 3 3 3 3 3 3 3 3 3 3 3 3 0
1 3 3 3 3 3 3 3 3 3 3 3 3 3 3 0
1 3 3 3 3 3 3 3 3 3 3 3 3 3 3 0
1 3 3 3 3 3 3 3 3 3 3 3 3 3 4 0
1 4 4 4 4 4 4 4 4 4 4 4 4 4 4 0
1 4 4 4 4 4 4 4 4 4 4 4 4 4 4 0
1 4 4 4 4 4 4 5 5 5 5 5 5 5 5 0
1 5 5 5 5 5 5 5 5 5 5 5 5 5 5 0
1 5 5 5 5 5 5 5 5 5 5 5 5 5 5 0
1 5 5 5 5 5 6 6 6 6 6 6 6 6 6 0
1 6 6 6 6 6 6 6 6 6 6 6 6 6 6 0
1 6 6 6 6 6 6 6 6 6 6 6 6 6 6 0
1 6 6 6 6 6 6 6 6 6 7 7 7 7 7 0
1 7 7 7 7 7 7 7 7 7 7 7 7 7 7 0
1 7 7 7 7 7 7 7 7 7 7 7 7 7 7 0
1 7 7 7 7 7 7 7 7 7 7 7 7 8 8 0
1 8 8 8 8 8 8 8 8 8 8 8 8 8 8 0
1 8 8 8 8 8 8 8 8 8 8 8 8 8 8 0
1 8 8 8 8 8 8 8 8 8 8 8 8 8 8 0
1 9 9 9 9 9 9 9 9 9 9 9 9 9 9 0
1 9 9 9 9 9 9 9 9 9 9 9 9 9 9 0
1 9 9 9 9 9 9 9 9 9 9 9 9 9 9 0
1 9 9 9 9 9 9 9 9 9 9 9 9 9 9 0
1 10 10 10 10 10 10 10 10 10 10 10 10 10 10 0
1 10 10 10 10 10 10 10 10 10 10 10 10 10 10 0
1 10 10 10 10 10 10 10 10 10 10 10 10 10 10 0
1 10 10 10 10 10 10 10 10 10 10 10 10 10 10 0
1 10 10 10 10 11 11 11 11 11 11 11 11 11 11 0
1 11 11 11 11 11 11 11 11 11 11 11 11 11 11 0
1 11 11 11 11 11 11 11 11 11 11 11 11 11 11 0
1 11 11 11 11 12 12 12 12 12 12 12 12 12 12 0
1 12 12 12 12 12 12 12 12 12 12 12 12 12 12 0
1 12 12 12 12 12 12 12 12 12 12 12 12 12 12 0
1 12 13 13 13 13 13 13 13 13 13 13 13 13 13 0
1 13 13 13 13 13 13 13 13 13 13 13 13 13 13 0
1 13 13 13 13 13 13 13 13 13 13 13 13 13 13 0
1 13 13 13 13 13 13 13 13 13 13 14 14 14 14 0
1 14 14 14 14 14 14 14 14 14 14 14 14 14 14 0
1 14 14 14 14 14 14 14 14 14 14 14 14 14 14 0
1 14 14 14 14 14 14 14 14 14 14 14 15 15 15 0
1 15 15 15 15 15 15 15 15 15 15 15 15 15 15 0
1 15 15 15 15 15 15 15 15 15 15 15 15 15 15 0
1 15 15 15 15 15 15 15 15 15 15 15 15 15 15 0
1 15 15 16 16 16 16 16 16 16 16 16 16 16 16 0
1 16 16 16 16 16 16 16 16 16 16 16 16 16 16 0
1 16 16 16 16 16 16 16 16 16 16 16 16 16 16 0
1 17 17 17 17 17 17 17 17 17 17 17 17 17 17 0
1 17 17 17 17 17 17 17 17 17 17 17 17 17 17 0
1 17 17 17 17 17 17 17 17 17 17 17 17 17 17 0
1 17 17 17 17 17 17 17 17 17 17 17 17 17 17 0
1 17 17 17 17 18 18 18 18 18 18 18 18 18 18 0
1 18 18 18 18 18 18 18 18 18 18 18 18 18 18 0
1 18 18 18 18 18 18 18 18 18 18 18 18 18 18 0
1 18 18 18 18 18 18 18 18 18 19 19 19 19 19 0
1 19 19 19 19 19 19 19 19 19 19 19 19 19 19 0
1 19 19 19 19 19 19 19 19 19 19 19 19 19 19 0
1 19 19 19 19 19 19 19 19 19 19 19 19 19 19 0
1 19 19 19 19 19 20 20 20 20 20 20 20 20 20 0
1 20 20 20 20 20 20 20 20 20 20 20 20 20 20 0
1 20 20 20 20 20 20 20 20 20 20 20 20 20 20 0
1 20 20 20 20 20 20 20 20 20 20 20 20 20 20 0
1 20 20 20 20 21 21 21 21 21 21 21 21 21 21 0
1 21 21 21 21 21 21 21 21 21 21 21 21 21 21 0
1 21 21 21 21 21 21 21 21 21 21 21 21 21 21 0
1 21 21 21 21 21 21 21 21 22 22 22 22 22 22 0
1 22 22 22 22 22 22 22 22 22 22 22 22 22 22 0
1 22 22 22 22 22 22 22 22 22 22 22 22 22 22 0
1 22 22 22 22 22 22 22 22 22 22 22 22 22 22 0
1 23 23 23 23 23 23 23 23 23 23 23 23 23 23 0
1 23 23 23 23 23 23 23 23 23 23 23 23 23 23 0
1 23 23 23 23 23 23 23 23 23 23 23 23 23 23 0
1 23 23 23 23 23 23 23 23 23 24 24 24 24 24 0
1 24 24 24 24 24 24 24 24 24 24 24 24 24 24 0
1 24 24 24 24 24 24 24 24 24 24 24 24 24 24 0
1 24 24 24 24 24 24 24 25 25 25 25 25 25 25 0
1 25 25 25 25 25 25 25 25 25 25 25 25 25 25 0
1 25 25 25 25 25 25 25 25 25 25 25 25 25 25 0
1 25 25 25 25 25 25 25 25 25 25 25 25 25 25 0
1 26 26 26 26 26 26 26 26 26 26 26 26 26 26 0
1 26 26 26 26 26 26 26 26 26 26 26 26 26 26 0
1 26 26 26 26 26 26 26 26 26 26 26 26 26 26 0
1 26 26 26 26 26 26 26 26 26 26 26 27 27 27 0
1 27 27 27 27 27 27 27 27 27 27 27 27 27 27 0
1 27 27 27 27 27 27 27 27 27 27 27 27 27 27 0
1 27 27 27 27 27 27 27 27 27 27 27 27 27 27 0
1 27 27 27 27 27 27 27 27 28 28 28 28 28 28 0
1 28 28 28 28 28 28 28 28 28 28 28 28 28 28 0
1 28 28 28 28 28 28 28 28 28 28 28 28 28 28 0
1 28 28 28 28 28 28 28 28 28 28 28 28 28 28 0
1 28 28 29 29 29 29 29 29 29 29 29 29 29 29 0
1 29 29 29 29 29 29 29 29 29 29 29 29 29 29 0
1 29 29 29 29 29 29 29 29 29 29 29 29 29 29 0
1 29 29 29 29 29 29 29 29 29 29 30 30 30 30 0
1 30 30 30 30 30 30 30 30 30 30 30 30 30 30 0
1 30 30 30 30 30 30 30 30 30 30 30 30 30 30 0
1 30 30 30 30 30 30 30 30 30 30 30 30 30 30 0
1 30 31 31 31 31 31 31 31 31 31 31 31 31 31 0
1 31 31 31 31 31 31 31 31 31 31 31 31 31 31 0
1 31 31 31 31 31 31 31 31 31 31 31 32 32 32 0
1 32 32 32 32 32 32 32 32 32 32 32 32 32 32 0
1 32 32 32 32 32 32 32 32 32 32 32 32 32 32 0
1 32 32 32 32 32 32 32 32 32 32 32 32 33 33 0
1 33 33 33 33 33 33 33 33 33 33 33 33 33 33 0
1 33 33 33 33 33 33 33 33 33 33 33 33 33 33 0
1 33 33 33 33 33 33 33 33 33 33 33 33 33 33 0
1 33 33 34 34 34 34 34 34 34 34 34 34 34 34 0
1 34 34 34 34 34 34 34 34 34 34 34 34 34 34 0
1 34 34 34 34 34 34 34 34 34 34 34 34 34 34 0
1 34 34 34 34 34 35 35 35 35 35 35 35 35 35 0
1 35 35 35 35 35 35 35 35 35 35 35 35 35 35 0
1 35 35 35 35 35 35 35 35 35 35 35 35 35 35 0
1 35 35 35 35 35 35 35 35 35 35 35 35 35 35 0
1 35 35 35 35 36 36 36 36 36 36 36 36 36 36 0
1 36 36 36 36 36 36 36 36 36 36 36 36 36 36 0
1 36 36 36 36 36 36 36 36 36 36 36 36 36 36 0
1 36 36 36 37 37 37 37 37 37 37 37 37 37 37 0
1 37 37 37 37 37 37 37 37 37 37 37 37 37 37 0
1 37 37 37 37 37 37 37 37 37 37 37 37 37 37 0
1 37 37 38 38 38 38 38 38 38 38 38 38 38 38 0
1 38 38 38 38 38 38 38 38 38 38 38 38 38 38 0
1 38 38 38 38 38 38 38 39 39 39 39 39 39 39 0
1 39 39 39 39 39 39 39 39 39 39 39 39 39 39 0
1 39 39 39 39 39 39 39 39 39 39 39 39 39 39 0
1 39 39 39 39 39 39 39 39 39 39 39 39 39 40 0
1 40 40 40 40 40 40 40 40 40 40 40 40 40 40 0
1 40 40 40 40 40 40 40 40 40 40 40 40 40 40 0
1 40 40 40 40 40 40 40 40 40 40 40 40 40 41 0
1 41 41 41 41 41 41 41 41 41 41 41 41 41 41 0
1 41 41 41 41 41 41 41 41 41 41 41 41 41 41 0
1 41 41 41 41 41 41 41 41 41 41 41 41 41 41 0
1 41 41 41 41 41 41 42 42 42 42 42 42 42 42 0
1 42 42 42 42 42 42 42 42 42 42 42 42 42 42 0
1 42 42 42 42 42 42 42 42 42 42 42 42 42 42 0
1 42 42 42 42 42 43 43 43 43 43 43 43 43 43 0
1 43 43 43 43 43 43 43 43 43 43 43 43 43 43 0
1 43 43 43 43 43 43 43 43 43 43 43 43 43 43 0
1 43 43 43 43 43 43 43 43 43 43 43 43 43 43 0
1 44 44 44 44 44 44 44 44 44 44 44 44 44 44 0
1 44 44 44 44 44 44 44 44 44 44 44 44 44 44 0
1 44 44 44 44 44 44 44 44 44 44 44 44 44 44 0
1 44 44 45 45 45 45 45 45 45 45 45 45 45 45 0
1 45 45 45 45 45 45 45 45 45 45 45 45 45 45 0
1 45 45 45 45 45 45 45 45 45 45 45 45 45 45 0
1 45 46 46 46 46 46 46 46 46 46 46 46 46 46 0
1 46 46 46 46 46 46 46 46 46 46 46 46 46 46 0
1 46 46 46 46 46 46 46 46 46 46 46 46 46 47 0
1 47 47 47 47 47 47 47 47 47 47 47 47 47 47 0
1 47 47 47 47 47 47 47 47 47 47 47 47 47 47 0
1 47 47 47 47 47 47 47 47 47 47 47 47 47 47 0
1 48 48 48 48 48 48 48 48 48 48 48 48 48 48 0
1 48 48 48 48 48 48 48 48 48 48 48 48 48 48 0
1 48 48 48 48 48 48 48 48 48 48 48 48 48 48 0
1 48 48 48 48 48 48 48 48 48 48 49 49 49 49 0
1 49 49 49 49 49 49 49 49 49 49 49 49 49 49 0
1 49 49 49 49 49 49 49 49 49 49 49 49 49 49 0
1 49 49 49 49 49 49 49 49 50 50 50 50 50 50 0
1 50 50 50 50 50 50 50 50 50 50 50 50 50 50 0
1 50 50 50 50 50 50 50 50 50 50 50 50 50 50 0
1 50 50 50 50 50 50 50 50 50 50 50 50 50 50 0
1 50 50 50 50 50 50 51 51 51 51 51 51 51 51 0
1 51 51 51 51 51 51 51 51 51 51 51 51 51 51 0
1 51 51 51 51 51 51 51 51 51 51 51 51 51 51 0
1 51 51 51 51 51 51 51 51 51 51 51 52 52 52 0
1 52 52 52 52 52 52 52 52 52 52 52 52 52 52 0
1 52 52 52 52 52 52 52 52 52 52 52 52 52 52 0
1 52 52 52 52 52 52 52 52 52 52 52 52 52 52 0
1 52 52 53 53 53 53 53 53 53 53 53 53 53 53 0
1 53 53 53 53 53 53 53 53 53 53 53 53 53 53 0
1 53 53 53 53 53 53 53 53 53 53 53 53 53 53 0
1 53 53 53 53 53 53 53 53 53 53 53 53 53 53 0
1 53 54 54 54 54 54 54 54 54 54 54 54 54 54 0
1 54 54 54 54 54 54 54 54 54 54 54 54 54 54 0
1 54 54 54 54 54 54 54 54 54 54 54 54 54 54 0
1 54 54 54 54 54 54 54 54 54 54 55 55 55 55 0
1 55 55 55 55 55 55 55 55 55 55 55 55 55 55 0
1 55 55 55 55 55 55 55 55 55 55 55 55 55 55 0
1 55 55 55 55 55 55 55 55 55 55 55 55 55 55 0
1 56 56 56 56 56 56 56 56 56 56 56 56 56 56 0
1 56 56 56 56 56 56 56 56 56 56 56 56 56 56 0
1 56 56 56 56 56 56 56 56 56 56 56 56 56 56 0
1 56 56 56 56 56 56 57 57 57 57 57 57 57 57 0
1 57 57 57 57 57 57 57 57 57 57 57 57 57 57 0
1 57 57 57 57 57 57 57 57 57 57 57 57 57 57 0
1 57 57 57 57 57 57 57 58 58 58 58 58 58 58 0
1 58 58 58 58 58 58 58 58 58 58 58 58 58 58 0
1 58 58 58 58 58 58 58 58 58 58 58 58 58 58 0
1 58 58 58 58 58 58 58 58 58 58 58 59 59 59 0
1 59 59 59 59 59 59 59 59 59 59 59 59 59 59 0
1 59 59 59 59 59 59 59 59 59 59 59 59 59 59 0
1 59 59 59 59 59 59 59 59 59 59 59 60 60 60 0
1 60 60 60 60 60 60 60 60 60 60 60 60 60 60 0
1 60 60 60 60 60 60 60 60 60 60 60 60 60 60 0
1 60 60 60 60 60 60 60 60 60 60 60 60 60 60 0
1 61 61 61 61 61 61 61 61 61 61 61 61 61 61 0
1 61 61 61 61 61 61 61 61 61 61 61 61 61 61 0
1 61 61 61 61 61 61 61 61 61 61 61 61 61 61 0
1 61 61 61 62 62 62 62 62 62 62 62 62 62 62 0
1 62 62 62 62 62 62 62 62 62 62 62 62 62 62 0
1 62 62 62 62 62 62 62 62 62 62 62 62 62 62 0
1 62 62 62 62 62 62 62 62 62 62 62 62 62 62 0
1 62 62 62 63 63 63 63 63 63 63 63 63 63 63 0
1 63 63 63 63 63 63 63 63 63 63 63 63 63 63 0
1 63 63 63 63 63 63 63 63 63 63 63 63 63 63 0
1 63 63 63 63 64 64 64 64 64 64 64 64 64 64 0
1 64 64 64 64 64 64 64 64 64 64 64 64 64 64 0
1 64 64 64 64 64 64 64 64 64 64 64 64 64 64 0
1 64 64 64 64 64 64 64 64 64 64 64 64 64 64 0
1 65 65 65 65 65 65 65 65 65 65 65 65 65 65 0
1 65 65 65 65 65 65 65 65 65 65 65 65 65 65 0
1 65 65 65 65 65 65 65 65 65 65 65 65 65 65 0
1 65 65 65 65 65 65 65 65 65 65 65 65 65 65 0
1 65 65 66 66 66 66 66 66 66 66 66 66 66 66 0
1 66 66 66 66 66 66 66 66 66 66 66 66 66 66 0
1 66 66 66 66 66 66 66 66 66 66 66 66 66 66 0
1 66 66 66 66 66 66 66 66 66 66 66 66 66 66 0
1 67 67 67 67 67 67 67 67 67 67 67 67 67 67 0
1 67 67 67 67 67 67 67 67 67 67 67 67 67 67 0
1 67 67 67 67 67 67 67 68 68 68 68 68 68 68 0
1 68 68 68 68 68 68 68 68 68 68 68 68 68 68 0
1 68 68 68 68 68 68 68 68 68 68 68 68 68 68 0
1 68 68 68 68 68 68 68 68 68 68 68 68 68 69 0
1 69 69 69 69 69 69 69 69 69 69 69 69 69 69 0
1 69 69 69 69 69 69 69 69 69 69 69 69 69 69 0
1 69 69 69 69 69 69 69 69 69 69 69 69 69 69 0
1 69 70 70 70 70 70 70 70 70 70 70 70 70 70 0
1 70 70 70 70 70 70 70 70 70 70 70 70 70 70 0
1 70 70 70 70 70 70 70 70 70 70 70 70 70 70 0
1 70 70 70 71 71 71 71 71 71 71 71 71 71 71 0
1 71 71 71 71 71 71 71 71 71 71 71 71 71 71 0
1 71 71 71 71 71 71 71 71 71 71 72 72 72 72 0
1 72 72 72 72 72 72 72 72 72 72 72 72 72 72 0
1 72 72 72 72 72 72 72 72 72 72 72 72 72 72 0
1 72 72 72 72 72 72 72 72 72 72 72 72 72 72 0
1 72 72 72 72 73 73 73 73 73 73 73 73 73 73 0
1 73 73 73 73 73 73 73 73 73 73 73 73 73 73 0
1 73 73 73 73 73 73 73 73 73 73 73 73 73 73 0
1 73 73 73 73 73 73 73 73 73 73 73 73 74 74 0
1 74 74 74 74 74 74 74 74 74 74 74 74 74 74 0
1 74 74 74 74 74 74 74 74 74 74 74 74 74 74 0
1 74 74 74 74 74 74 74 74 74 74 74 74 74 74 0
1 74 74 74 74 74 74 74 75 75 75 75 75 75 75 0
1 75 75 75 75 75 75 75 75 75 75 75 75 75 75 0
1 75 75 75 75 75 75 75 75 75 75 75 75 75 75 0
1 75 75 75 75 75 75 75 75 75 75 75 75 75 75 0
1 75 75 75 75 75 76 76 76 76 76 76 76 76 76 0
1 76 76 76 76 76 76 76 76 76 76 76 76 76 76 0
1 76 76 76 76 76 76 76 76 76 76 76 76 76 76 0
1 76 76 76 76 76 76 76 76 76 76 76 76 76 77 0
1 77 77 77 77 77 77 77 77 77 77 77 77 77 77 0
1 77 77 77 77 77 77 77 77 77 77 77 77 77 77 0
1 77 77 77 77 77 77 77 77 77 77 77 77 77 77 0
1 77 77 77 77 77 77 77 77 78 78 78 78 78 78 0
1 78 78 78 78 78 78 78 78 78 78 78 78 78 78 0
1 78 78 78 78 78 78 78 78 78 78 78 78 78 78 0
1 78 78 78 78 78 78 78 78 78 78 78 78 78 78 0
1 78 78 79 79 79 79 79 79 79 79 79 79 79 79 0
1 79 79 79 79 79 79 79 79 79 79 79 79 79 79 0
1 79 79 79 79 79 79 79 79 79 79 79 79 79 79 0
1 79 79 80 80 80 80 80 80 80 80 80 80 80 80 0
1 80 80 80 80 80 80 80 80 80 80 80 80 80 80 0
1 80 80 80 80 80 80 80 80 80 80 80 80 80 80 0
1 80 80 80 80 80 80 80 80 81 81 81 81 81 81 0
1 81 81 81 81 81 81 81 81 81 81 81 81 81 81 0
1 81 81 81 81 81 81 81 81 81 81 81 81 81 81 0
1 81 81 81 81 81 81 81 81 81 81 81 81 81 81 0
1 81 81 81 81 81 82 82 82 82 82 82 82 82 82 0
1 82 82 82 82 82 82 82 82 82 82 82 82 82 82 0
1 82 82 82 82 82 82 82 82 82 82 82 82 82 82 0
1 82 82 82 83 83 83 83 83 83 83 83 83 83 83 0
1 83 83 83 83 83 83 83 83 83 83 83 83 83 83 0
1 83 83 83 83 83 83 83 83 83 83 83 83 83 83 0
1 83 83 83 83 83 83 83 83 83 83 83 83 83 83 0
1 83 83 83 83 83 83 84 84 84 84 84 84 84 84 0
1 84 84 84 84 84 84 84 84 84 84 84 84 84 84 0
1 84 84 84 84 84 84 84 84 84 84 84 84 84 84 0
1 84 84 84 84 84 84 84 84 84 84 84 85 85 85 0
1 85 85 85 85 85 85 85 85 85 85 85 85 85 85 0
1 85 85 85 85 85 85 85 85 85 85 85 85 85 85 0
1 85 85 85 85 85 85 85 85 86 86 86 86 86 86 0
1 86 86 86 86 86 86 86 86 86 86 86 86 86 86 0
1 86 86 86 86 86 86 86 86 86 86 86 86 86 86 0
1 86 86 86 86 86 86 87 87 87 87 87 87 87 87 0
1 87 87 87 87 87 87 87 87 87 87 87 87 87 87 0
1 87 87 87 87 87 87 87 87 87 87 87 87 87 87 0
1 87 87 87 87 87 87 87 87 87 87 87 87 88 88 0
1 88 88 88 88 88 88 88 88 88 88 88 88 88 88 0
1 88 88 88 88 88 88 88 88 88 88 88 88 88 88 0
1 88 88 88 88 88 88 88 88 88 88 88 88 88 88 0
1 88 88 88 88 88 88 88 88 88 88 88 88 88 89 0
1 89 89 89 89 89 89 89 89 89 89 89 89 89 89 0
1 89 89 89 89 89 89 89 89 89 89 89 89 89 89 0
1 89 89 89 89 89 89 89 89 89 89 89 89 89 89 0
1 89 89 89 89 89 90 90 90 90 90 90 90 90 90 0
1 90 90 90 90 90 90 90 90 90 90 90 90 90 90 0
1 90 90 90 90 90 90 90 90 90 90 90 90 90 90 0
1 90 90 90 90 90 90 90 91 91 91 91 91 91 91 0
1 91 91 91 91 91 91 91 91 91 91 91 91 91 91 0
1 91 91 91 91 91 91 91 91 91 91 91 91 91 91 0
1 91 91 91 91 91 91 91 92 92 92 92 92 92 92 0
1 92 92 92 92 92 92 92 92 92 92 92 92 92 92 0
1 92 92 92 92 92 92 92 92 92 92 92 92 92 92 0
1 92 92 92 92 92 92 92 92 92 92 92 92 92 92 0
1 93 93 93 93 93 93 93 93 93 93 93 93 93 93 0
1 93 93 93 93 93 93 93 93 93 93 93 93 93 93 0
1 93 93 93 93 93 93 93 93 93 93 93 93 93 94 0
1 94 94 94 94 94 94 94 94 94 94 94 94 94 94 0
1 94 94 94 94 94 94 94 94 94 94 94 94 94 94 0
1 94 94 94 94 94 94 94 94 94 94 95 95 95 95 0
1 95 95 95 95 95 95 95 95 95 95 95 95 95 95 0
1 95 95 95 95 95 95 95 95 95 95 95 95 95 95 0
1 95 95 95 95 95 95 95 95 95 95 95 95 95 95 0
1 95 95 95 96 96 96 96 96 96 96 96 96 96 96 0
1 96 96 96 96 96 96 96 96 96 96 96 96 96 96 0
1 96 96 96 96 96 96 96 96 96 96 96 96 96 96 0
1 96 96 96 96 96 96 96 96 96 96 96 97 97 97 0
1 97 97 97 97 97 97 97 97 97 97 97 97 97 97 0
1 97 97 97 97 97 97 97 97 97 97 97 97 97 97 0
1 97 97 97 97 97 97 97 97 97 97 97 97 97 97 0
1 97 98 98 98 98 98 98 98 98 98 98 98 98 98 0
1 98 98 98 98 98 98 98 98 98 98 98 98 98 98 0
1 98 98 98 98 98 98 98 98 98 98 98 98 98 98 0
1 98 98 98 98 98 98 98 98 98 98 99 99 99 99 0
1 99 99 99 99 99 99 99 99 99 99 99 99 99 99 0
1 99 99 99 99 99 99 99 99 99 99 99 99 99 99 0
1 99 99 99 99 99 99 99 99 99 100 100 100 100 100 0
1 100 100 100 100 100 100 100 100 100 100 100 100 100 100 0
1 100 100 100 100 100 100 100 100 100 100 100 100 100 100 0
1 100 100 100 100 0
1  0
1 17 19 24 30 32 34 45 48 50 64 70 78 88 89 0
1 94 97 113 119 121 126 132 136 140 143 150 151 166 170 0
1 172 176 177 181 184 197 208 217 226 232 242 250 255 257 0
1 269 272 275 277 292 295 297 303 304 305 312 319 320 331 0
1 335 358 366 367 370 380 381 382 383 388 401 404 414 420 0
1 445 449 452 457 477 479 489 492 493 495 501 504 512 516 0
1 523 531 545 550 555 558 562 565 568 569 578 582 589 594 0
1 599 604 605 612 613 615 620 621 626 628 636 641 642 644 0
1 657 658 661 663 664 673 674 676 679 683 685 689 691 694 0
1 706 707 708 715 718 727 728 735 739 748 754 761 765 766 0
1 771 774 775 784 787 791 796 797 803 807 809 811 813 822 0
1 827 832 833 838 839 849 852 855 856 869 874 893 896 897 0
1 902 910 912 938 949 950 952 958 959 963 964 968 969 980 0
1 992 1003 1009 1012 1019 1021 1030 1034 1036 1043 1048 1049 1065 1066 0
1 1076 1085 1087 1088 1099 1101 1104 1127 1130 1132 1133 1136 1137 1138 0
1 1147 1157 1162 1166 1167 1180 1181 1184 1189 1191 1201 1218 1238 1240 0
1 1259 1260 1268 1270 1271 1274 1281 1283 1285 1301 1302 1307 1322 1334 0
1 1342 1343 1350 1359 1362 1367 1375 1382 1384 1385 1387 1390 1393 1396 0
1 1399 1407 1412 1413 1423 1429 1430 1433 1441 1451 1468 1482 1486 1487 0
1 1493 1497 1511 1513 1514 1518 1523 1525 1526 1528 1530 1534 1536 1538 0
1 1550 1559 1572 1574 1575 1585 1586 1598 1599 1600 1609 1612 1617 1618 0
1 1622 1623 1627 1635 1636 1645 1646 1647 1648 1653 1654 1657 1660 1688 0
1 1695 1696 1697 1702 1706 1715 1716 1717 1719 1721 1725 1727 1730 1735 0
1 1747 1752 1755 1756 1757 1758 1759 1766 1767 1772 1774 1776 1786 1787 0
1 1802 1808 1818 1825 1828 1829 1831 1835 1839 1840 1847 1857 1861 1868 0
1 1888 1908 1914 1915 1919 1921 1926 1944 1949 1956 1959 1964 1968 1973 0
1 1978 1984 1989 1990 1993 1999 2004 2007 2015 2016 2023 2026 2028 2032 0
1 2042 2051 2053 2056 2057 2058 2061 2066 2068 2080 2087 2115 2118 2129 0
1 2147 2148 2153 2159 2161 2162 2175 2184 2189 2193 2195 2197 2203 2213 0
1 2223 2228 2230 2236 2239 2248 2255 2262 2266 2268 2272 2273 2276 2294 0
1 2304 2311 2322 2326 2329 2333 2335 2337 2343 2366 2367 2371 2375 2380 0
1 2385 2387 2389 2392 2393 2394 2400 2414 2419 2428 2436 2440 2445 2446 0
1 2452 2458 2465 2473 2475 2487 2494 2496 2497 2499 2505 2507 2510 2518 0
1 2523 2524 2528 2535 2538 2552 2555 2559 2560 2563 2564 2566 2568 2571 0
1 2578 2585 2586 2593 2595 2597 2598 2605 2619 2625 2628 2629 2635 2644 0
1 2654 2660 2666 2668 2677 2678 2689 2697 2702 2710 2711 2716 2721 2722 0
1 2726 2731 2741 2752 2757 2763 2766 2767 2769 2775 2784 2786 2803 2813 0
1 2822 2825 2832 2836 2852 2859 2880 2882 2884 2898 2899 2900 2921 2924 0
1 2929 2939 2943 2945 2947 2949 2953 2956 2959 2961 2963 2965 2969 2972 0
1 2982 2990 2996 2998 2999 3000 3005 3011 3019 3020 3024 3026 3027 3042 0
1 3048 3055 3058 3062 3069 3071 3076 3084 3085 3095 3098 3102 3103 3105 0
1 3110 3120 3121 3124 3129 3136 3146 3150 3158 3164 3172 3174 3183 3192 0
1 3216 3217 3218 3219 3227 3229 3231 3234 3237 3248 3249 3254 3262 3274 0
1 3286 3290 3294 3295 3310 3313 3318 3327 3340 3350 3357 3362 3363 3369 0
1 3377 3378 3382 3387 3388 3389 3396 3400 3417 3421 3422 3425 3427 3433 0
1 3447 3453 3454 3457 3459 3460 3464 3468 3473 3476 3484 3488 3498 3499 0
1 3517 3522 3523 3526 3540 3541 3543 3548 3550 3560 3563 3565 3588 3592 0
1 3596 3599 3602 3604 3614 3615 3616 3618 3619 3628 3640 3644 3653 3655 0
1 3659 3661 3667 3668 3670 3678 3684 3691 3692 3704 3711 3712 3716 3719 0
1 3725 3731 3734 3740 3750 3758 3759 3763 3772 3783 3785 3786 3790 3799 0
1 3806 3808 3812 3814 3815 3819 3822 3823 3825 3828 3833 3839 3845 3846 0
1 3856 3863 3865 3868 3872 3876 3885 3887 3891 3901 3902 3916 3930 3931 0
1 3943 3957 3961 3968 3969 3976 3977 3980 3994 3995 3998 4004 4013 4016 0
1 4026 4035 4039 4047 4050 4051 4053 4064 4070 4072 4076 4080 4083 4085 0
1 4092 4098 4102 4107 4123 4124 4135 4139 4141 4143 4145 4146 4147 4152 0
1 4155 4158 4160 4165 4166 4169 4170 4175 4178 4187 4189 4192 4194 4198 0
1 4229 4231 4233 4252 4257 4266 4274 4285 4286 4288 4292 4296 4297 4301 0
1 4310 4318 4323 4325 4329 4331 4335 4346 4349 4353 4360 4374 4380 4394 0
1 4415 4425 4429 4437 4446 4448 4452 4454 4458 4460 4464 4465 4483 4488 0
1 4499 4505 4510 4515 4525 4527 4535 4536 4540 4552 4553 4556 4559 4562 0
1 4569 4579 4587 4613 4617 4625 4626 4630 4642 4644 4648 4649 4650 4665 0
1 4688 4692 4696 4707 4710 4719 4723 4727 4735 4747 4756 4761 4762 4771 0
1 4781 4783 4788 4792 4798 4799 4806 4812 4815 4824 4841 4843 4844 4856 0
1 4873 4879 4880 4881 4890 4907 4908 4912 4919 4920 4922 4923 4924 4931 0
1 4941 4943 4952 4955 4957 4960 4961 4963 4971 4972 4974 4976 4978 4979 0
1 4985 4998 0
1  0
1 9 11 12 14 15 17 22 28 29 40 41 44 46 51 0
1 65 69 77 82 83 92 102 105 109 111 115 118 120 121 0
1 130 141 142 143 146 149 150 158 161 165 170 172 173 175 0
1 192 198 199 202 205 212 216 219 222 223 229 231 245 248 0
1 264 268 274 280 282 283 285 289 297 311 329 330 335 337 0
1 342 345 346 348 349 354 355 363 371 372 379 387 393 397 0
1 399 401 412 416 423 426 437 440 444 450 452 459 462 468 0
1 477 488 490 501 507 508 515 519 520 541 549 554 555 562 0
1 570 572 580 583 588 591 593 598 601 610 612 613 614 616 0
1 628 640 644 645 646 656 661 662 664 671 673 675 690 696 0
1 710 712 722 729 742 744 748 752 760 764 768 770 771 779 0
1 789 795 796 800 803 804 816 822 830 832 835 840 844 845 0
1 859 861 870 874 879 881 884 892 896 915 922 927 929 962 0
1 978 987 992 994 999 1000 1002 1005 1011 1012 1014 1019 1022 1031 0
1 1044 1051 1057 1063 1067 1071 1076 1080 1082 1088 1097 1099 1101 1102 0
1 1112 1118 1122 1129 1130 1134 1142 1143 1145 1149 1151 1158 1169 1173 0
1 1177 1178 1184 1186 1190 1191 1206 1210 1211 1214 1221 1222 1223 1224 0
1 1239 1241 1242 1249 1250 1268 1285 1296 1299 1310 1311 1313 1315 1319 0
1 1333 1334 1342 1352 1356 1358 1369 1371 1375 1379 1382 1384 1385 1389 0
1 1403 1405 1409 1416 1424 1434 1440 1451 1452 1456 1460 1466 1467 1470 0
1 1490 1494 1498 1506 1514 1522 1523 1532 1533 1534 1535 1536 1537 1539 0
1 1555 1561 1578 1579 1582 1584 1586 1589 1592 1595 1597 1599 1606 1612 0
1 1626 1629 1654 1659 1665 1667 1669 1672 1676 1677 1678 1679 1691 1694 0
1 1708 1717 1719 1721 1728 1729 1736 1743 1745 1750 1754 1757 1758 1775 0
1 1777 1785 1788 1791 1793 1797 1802 1808 1815 1817 1825 1834 1835 1845 0
1 1857 1860 1862 1864 1865 1866 1873 1874 1879 1881 1895 1905 1910 1912 0
1 1923 1930 1931 1937 1938 1942 1952 1954 1956 1958 1959 1963 1964 1965 0
1 1970 1974 1976 1978 1985 1986 1993 2001 2005 2010 2013 2021 2025 2032 0
1 2039 2042 2045 2047 2055 2059 2061 2070 2079 2081 2088 2089 2090 2101 0
1 2112 2114 2116 2134 2141 2151 2154 2155 2156 2157 2160 2163 2167 2170 0
1 2175 2176 2199 2203 2204 2207 2217 2221 2223 2227 2235 2241 2242 2243 0
1 2246 2247 2249 2257 2267 2280 2297 2298 2299 2305 2310 2313 2318 2321 0
1 2327 2329 2330 2334 2337 2340 2343 2354 2362 2371 2384 2388 2391 2404 0
1 2414 2428 2431 2433 2437 2445 2461 2463 2469 2483 2485 2489 2495 2501 0
1 2507 2511 2522 2543 2546 2556 2558 2559 2563 2570 2572 2581 2586 2587 0
1 2605 2617 2628 2629 2636 2637 2650 2658 2661 2663 2667 2669 2676 2685 0
1 2691 2696 2699 2700 2713 2714 2716 2724 2727 2728 2732 2740 2743 2754 0
1 2762 2768 2770 2777 2779 2786 2789 2792 2796 2802 2804 2805 2808 2809 0
1 2817 2829 2835 2861 2868 2875 2877 2883 2892 2893 2894 2895 2896 2925 0
1 2938 2941 2942 2946 2949 2950 2952 2957 2964 2965 2971 2975 2978 2983 0
1 2993 2995 2997 2998 3005 3007 3009 3011 3018 3028 3038 3041 3045 3051 0
1 3068 3070 3072 3074 3078 3084 3087 3099 3101 3104 3110 3122 3127 3128 0
1 3141 3142 3150 3162 3164 3167 3171 3175 3178 3190 3194 3199 3203 3205 0
1 3213 3217 3218 3222 3228 3230 3232 3238 3240 3244 3246 3251 3253 3255 0
1 3261 3267 3281 3282 3290 3292 3294 3297 3302 3310 3317 3321 3323 3325 0
1 3332 3337 3341 3343 3347 3352 3354 3357 3358 3360 3363 3369 3375 3376 0
1 3394 3395 3400 3409 3412 3422 3423 3424 3429 3430 3431 3441 3442 3446 0
1 3449 3450 3459 3464 3470 3475 3478 3479 3488 3490 3491 3494 3496 3505 0
1 3516 3525 3527 3528 3530 3533 3536 3542 3543 3547 3561 3565 3567 3577 0
1 3584 3593 3601 3606 3608 3611 3616 3618 3620 3621 3643 3645 3660 3663 0
1 3685 3697 3698 3699 3701 3702 3704 3711 3713 3714 3717 3723 3730 3731 0
1 3735 3736 3739 3746 3753 3757 3759 3761 3762 3763 3765 3768 3770 3774 0
1 3777 3782 3784 3785 3791 3793 3800 3807 3810 3814 3815 3818 3819 3826 0
1 3844 3848 3849 3854 3856 3860 3868 3874 3877 3879 3883 3895 3896 3905 0
1 3914 3915 3917 3919 3925 3929 3930 3932 3933 3934 3941 3945 3949 3954 0
1 3965 3966 3988 4005 4015 4016 4021 4025 4026 4032 4054 4061 4079 4086 0
1 4098 4100 4104 4121 4127 4136 4138 4156 4157 4167 4174 4179 4184 4187 0
1 4196 4205 4206 4210 4213 4214 4217 4229 4237 4239 4242 4252 4253 4258 0
1 4260 4275 4279 4280 4281 4282 4283 4287 4288 4290 4291 4292 4295 4298 0
1 4306 4307 4316 4318 4331 4333 4340 4349 4352 4354 4356 4357 4361 4365 0
1 4371 4377 4381 4383 4394 4400 4401 4412 4416 4418 4425 4429 4433 4436 0
1 4450 4463 4469 4478 4487 4488 4493 4499 4513 4514 4523 4526 4528 4538 0
1 4554 4556 4559 4560 4573 4581 4585 4588 4594 4599 4603 4614 4615 4626 0
1 4636 4639 4640 4643 4649 4664 4666 4670 4671 4676 4677 4682 4683 4684 0
1 4695 4702 4712 4721 4722 4723 4736 4740 4745 4755 4761 4768 4769 4772 0
1 4804 4805 4806 4808 4820 4830 4837 4847 4865 4867 4868 4869 4871 4872 0
1 4877 4885 4887 4888 4893 4904 4916 4926 4928 4931 4938 4943 4945 4946 0
1 4948 4951 4961 4970 4981 4983 4988 4994 0
1  0
1 6 7 13 16 19 26 34 36 41 42 49 52 53 63 0
1 69 75 81 84 89 97 98 105 111 117 121 137 142 151 0
1 161 162 169 171 179 186 191 197 199 203 228 237 238 241 0
1 255 256 260 267 271 273 279 280 282 284 285 286 289 290 0
1 296 304 307 314 326 330 331 332 335 337 340 343 346 352 0
1 356 360 364 365 369 371 385 388 393 394 398 401 408 420 0
1 441 442 452 453 456 458 464 465 466 474 483 488 490 496 0
1 522 526 528 531 532 537 538 550 552 558 561 564 567 572 0
1 577 579 589 597 600 602 611 617 621 623 626 637 642 646 0
1 649 660 662 663 674 682 686 690 693 694 696 700 712 715 0
1 720 724 730 740 742 746 749 752 755 764 774 775 776 780 0
1 786 792 796 798 843 844 847 849 850 852 853 856 858 861 0
1 874 879 883 884 885 888 889 897 899 900 901 912 915 916 0
1 924 927 941 952 955 956 957 965 966 971 983 986 988 993 0
1 1011 1013 1021 1029 1030 1041 1046 1048 1050 1065 1075 1077 1079 1084 0
1 1107 1108 1115 1122 1123 1124 1131 1133 1140 1150 1166 1169 1181 1183 0
1 1186 1208 1222 1225 1226 1228 1230 1234 1241 1262 1266 1267 1270 1271 0
1 1283 1295 1299 1300 1302 1304 1323 1324 1325 1328 1330 1338 1347 1353 0
1 1361 1362 1363 1364 1368 1376 1382 1387 1389 1402 1417 1427 1428 1442 0
1 1457 1460 1467 1478 1481 1484 1487 1490 1491 1493 1495 1496 1515 1519 0
1 1526 1538 1543 1555 1556 1560 1565 1573 1576 1581 1590 1593 1605 1608 0
1 1613 1615 1624 1625 1626 1633 1638 1639 1649 1650 1658 1659 1662 1664 0
1 1676 1688 1690 1697 1702 1714 1715 1731 1732 1739 1763 1770 1777 1787 0
1 1789 1791 1796 1797 1798 1807 1815 1823 1828 1838 1840 1848 1854 1855 0
1 1857 1863 1865 1866 1869 1874 1879 1883 1886 1887 1890 1899 1904 1905 0
1 1915 1918 1921 1922 1930 1932 1935 1936 1937 1942 1945 1951 1953 1970 0
1 1973 1979 1981 1990 1993 1996 2003 2006 2010 2018 2019 2022 2026 2030 0
1 2033 2036 2039 2043 2044 2046 2048 2050 2052 2054 2057 2066 2069 2070 0
1 2081 2092 2095 2101 2105 2106 2108 2111 2122 2123 2126 2138 2144 2153 0
1 2168 2170 2171 2172 2174 2188 2189 2193 2196 2197 2202 2203 2205 2206 0
